n_res = 4;
rc = [ 27, 23, 19, 20 ];
n_tasks = 90;
d = [ 7, 7, 9, 7, 5, 1, 8, 10, 5, 10, 8, 10, 6, 7, 10, 6, 7, 7, 4, 6, 3, 4, 5, 4, 1, 10, 5, 5, 4, 3, 1, 3, 6, 5, 1, 8, 10, 4, 9, 8, 6, 7, 5, 3, 3, 10, 5, 7, 7, 10, 9, 8, 7, 8, 7, 8, 10, 10, 9, 1, 3, 3, 4, 5, 9, 3, 4, 5, 4, 10, 2, 9, 7, 8, 4, 8, 6, 5, 1, 6, 6, 3, 3, 5, 4, 1, 8, 9, 8, 9 ];
rr = [| 1, 0, 10, 0, 0, 4, 8, 1, 0, 4, 7, 0, 0, 0, 3, 0, 0, 0, 1, 0, 1, 5, 3, 0, 0, 10, 0, 0, 6, 0, 0, 0, 0, 0, 0, 0, 0, 0, 0, 0, 0, 0, 0, 0, 0, 0, 0, 0, 0, 0, 0, 0, 9, 0, 0, 7, 0, 0, 10, 4, 0, 0, 5, 1, 5, 0, 0, 0, 0, 4, 0, 0, 0, 0, 0, 4, 0, 0, 7, 0, 6, 1, 7, 0, 10, 3, 0, 5, 0, 7
      | 0, 0, 0, 3, 0, 0, 0, 0, 0, 0, 0, 0, 0, 8, 0, 0, 0, 0, 0, 0, 0, 0, 0, 0, 0, 0, 0, 0, 0, 0, 10, 2, 0, 0, 7, 3, 6, 7, 0, 7, 0, 0, 0, 0, 4, 0, 6, 0, 0, 0, 3, 0, 0, 10, 2, 0, 9, 0, 0, 0, 2, 0, 0, 0, 0, 0, 0, 9, 0, 0, 9, 8, 0, 0, 0, 0, 2, 7, 0, 6, 0, 0, 0, 0, 0, 0, 0, 0, 0, 0
      | 0, 10, 0, 0, 3, 0, 0, 0, 2, 0, 0, 0, 0, 0, 0, 0, 8, 9, 0, 0, 0, 0, 0, 2, 0, 0, 3, 6, 0, 0, 0, 0, 6, 0, 0, 0, 0, 0, 2, 0, 9, 3, 0, 0, 0, 0, 0, 1, 9, 4, 0, 0, 0, 0, 0, 0, 0, 4, 0, 0, 0, 8, 0, 0, 0, 0, 0, 0, 7, 0, 0, 0, 8, 0, 0, 0, 0, 0, 0, 0, 0, 0, 0, 4, 0, 0, 4, 0, 8, 0
      | 0, 0, 0, 0, 0, 0, 0, 0, 0, 0, 0, 7, 4, 0, 0, 7, 0, 0, 0, 6, 0, 0, 0, 0, 8, 0, 0, 0, 0, 9, 0, 0, 0, 4, 0, 0, 0, 0, 0, 0, 0, 0, 10, 5, 0, 8, 0, 0, 0, 0, 0, 6, 0, 0, 0, 0, 0, 0, 0, 0, 0, 0, 0, 0, 0, 2, 9, 0, 0, 0, 0, 0, 0, 1, 4, 0, 0, 0, 0, 0, 0, 0, 0, 0, 0, 0, 0, 0, 0, 0 |];
suc = [ { 6, 12, 25 },
       { 4, 20, 69 },
       { 7, 16, 49 },
       { 5, 18, 19 },
       { 8, 38, 60 },
       { 27, 28, 34 },
       { 10, 45 },
       { 9, 11, 61 },
       { 15, 52, 80 },
       { 13, 14, 62 },
       { 88 },
       { 21, 22, 24 },
       { 17, 23, 31 },
       { 29 },
       { 17 },
       { 39, 82 },
       { 26, 33, 50 },
       { 33, 70 },
       { 32, 36 },
       { 47, 73, 85 },
       { 76 },
       { 30, 41, 46 },
       { 44, 68 },
       { 45, 47, 78 },
       { 35, 54, 86 },
       { 27, 43 },
       { 42, 54 },
       { 46, 57, 76 },
       { 58 },
       { 37, 40, 84 },
       { 41, 50 },
       { 75 },
       { 71 },
       { 39, 52 },
       { 46, 57, 58 },
       { 48, 66 },
       { 53, 63, 64 },
       { 50, 53, 81 },
       { 60 },
       { 62 },
       { 52 },
       { 51, 55 },
       { 48, 74 },
       { 58, 77 },
       { 66 },
       { 83 },
       { 67, 71 },
       { 55, 82 },
       { 51, 63 },
       { 70 },
       { 56 },
       { 70, 75 },
       { 74 },
       { 59 },
       { 65, 89 },
       { 67 },
       { 59, 62, 81 },
       { 72 },
       { 72, 73 },
       { 64 },
       { 63, 73 },
       { 69, 80, 87 },
       { 66 },
       { 67, 78, 87 },
       { 75, 90 },
       { 71, 85 },
       { 74 },
       { 81, 82 },
       { 78 },
       { 72 },
       { 79 },
       { 83, 90 },
       { 84 },
       { 76 },
       { 79 },
       { 79 },
       { 80, 86 },
       { 89 },
       { 86 },
       { 90 },
       { 84 },
       { 83 },
       { 85 },
       { 89 },
       { 87 },
       { 88 },
       { 88 },
       {  },
       {  },
       {  } ];
